
;this file is automatically generated: Wed Apr 21 11:03:34 CST 2021

;declarations generated

(declare-fun oclExcludes ( Int Int) Bool)
(declare-fun Cardinality ( Int) Int)
(declare-fun class46_Class46IntAttr2 ( Int) Int)
(declare-fun obj_eb8ad17f_5f82_48c8_8535_478c6160225e ( Int) Int)
(declare-fun type_84081dda_17f9_4e8d_841d_5419697a788c_Class12 ( Int) Bool)
(declare-fun type_84081dda_17f9_4e8d_841d_5419697a788c_Class13 ( Int) Bool)
(declare-fun type_84081dda_17f9_4e8d_841d_5419697a788c_Class14 ( Int) Bool)
(declare-fun type_84081dda_17f9_4e8d_841d_5419697a788c_Class15 ( Int) Bool)
(declare-fun type_84081dda_17f9_4e8d_841d_5419697a788c_Class16 ( Int) Bool)
(declare-fun type_84081dda_17f9_4e8d_841d_5419697a788c_Class17 ( Int) Bool)
(declare-fun type_84081dda_17f9_4e8d_841d_5419697a788c_Class18 ( Int) Bool)
(declare-fun type_84081dda_17f9_4e8d_841d_5419697a788c_Class19 ( Int) Bool)
(declare-fun type_84081dda_17f9_4e8d_841d_5419697a788c_Class10 ( Int) Bool)
(declare-fun type_84081dda_17f9_4e8d_841d_5419697a788c_Class11 ( Int) Bool)
(declare-fun type_84081dda_17f9_4e8d_841d_5419697a788c_Class56 ( Int) Bool)
(declare-fun type_84081dda_17f9_4e8d_841d_5419697a788c_Class50 ( Int) Bool)
(declare-fun type_84081dda_17f9_4e8d_841d_5419697a788c_Class51 ( Int) Bool)
(declare-fun type_84081dda_17f9_4e8d_841d_5419697a788c_Class52 ( Int) Bool)
(declare-fun type_84081dda_17f9_4e8d_841d_5419697a788c_Class53 ( Int) Bool)
(declare-fun type_84081dda_17f9_4e8d_841d_5419697a788c_Class54 ( Int) Bool)
(declare-fun type_84081dda_17f9_4e8d_841d_5419697a788c_Class55 ( Int) Bool)
(declare-fun type_84081dda_17f9_4e8d_841d_5419697a788c_Class45 ( Int) Bool)
(declare-fun type_84081dda_17f9_4e8d_841d_5419697a788c_Class46 ( Int) Bool)
(declare-fun type_84081dda_17f9_4e8d_841d_5419697a788c_Class47 ( Int) Bool)
(declare-fun type_84081dda_17f9_4e8d_841d_5419697a788c_Class48 ( Int) Bool)
(declare-fun type_84081dda_17f9_4e8d_841d_5419697a788c_Class49 ( Int) Bool)
(declare-fun type_84081dda_17f9_4e8d_841d_5419697a788c_Class40 ( Int) Bool)
(declare-fun type_84081dda_17f9_4e8d_841d_5419697a788c_Class41 ( Int) Bool)
(declare-fun type_84081dda_17f9_4e8d_841d_5419697a788c_Class42 ( Int) Bool)
(declare-fun type_84081dda_17f9_4e8d_841d_5419697a788c_Class43 ( Int) Bool)
(declare-fun type_84081dda_17f9_4e8d_841d_5419697a788c_Class44 ( Int) Bool)
(declare-fun type_84081dda_17f9_4e8d_841d_5419697a788c_Class34 ( Int) Bool)
(declare-fun type_84081dda_17f9_4e8d_841d_5419697a788c_Class35 ( Int) Bool)
(declare-fun type_84081dda_17f9_4e8d_841d_5419697a788c_Class36 ( Int) Bool)
(declare-fun type_84081dda_17f9_4e8d_841d_5419697a788c_Class37 ( Int) Bool)
(declare-fun type_84081dda_17f9_4e8d_841d_5419697a788c_Class38 ( Int) Bool)
(declare-fun type_84081dda_17f9_4e8d_841d_5419697a788c_Class39 ( Int) Bool)
(declare-fun type_84081dda_17f9_4e8d_841d_5419697a788c_Class30 ( Int) Bool)
(declare-fun type_84081dda_17f9_4e8d_841d_5419697a788c_Class31 ( Int) Bool)
(declare-fun type_84081dda_17f9_4e8d_841d_5419697a788c_Class32 ( Int) Bool)
(declare-fun type_84081dda_17f9_4e8d_841d_5419697a788c_Class33 ( Int) Bool)
(declare-fun type_84081dda_17f9_4e8d_841d_5419697a788c_Class23 ( Int) Bool)
(declare-fun type_84081dda_17f9_4e8d_841d_5419697a788c_Class24 ( Int) Bool)
(declare-fun type_84081dda_17f9_4e8d_841d_5419697a788c_Class25 ( Int) Bool)
(declare-fun type_84081dda_17f9_4e8d_841d_5419697a788c_Class26 ( Int) Bool)
(declare-fun type_84081dda_17f9_4e8d_841d_5419697a788c_Class27 ( Int) Bool)
(declare-fun type_84081dda_17f9_4e8d_841d_5419697a788c_Class28 ( Int) Bool)
(declare-fun type_84081dda_17f9_4e8d_841d_5419697a788c_Class29 ( Int) Bool)
(declare-fun type_84081dda_17f9_4e8d_841d_5419697a788c_Class20 ( Int) Bool)
(declare-fun type_84081dda_17f9_4e8d_841d_5419697a788c_Class21 ( Int) Bool)
(declare-fun type_84081dda_17f9_4e8d_841d_5419697a788c_Class22 ( Int) Bool)
(declare-fun oclSelect ( Int Bool) Int)
(declare-fun type_84081dda_17f9_4e8d_841d_5419697a788c_Class0 ( Int) Bool)
(declare-fun type_84081dda_17f9_4e8d_841d_5419697a788c_Class1 ( Int) Bool)
(declare-fun type_84081dda_17f9_4e8d_841d_5419697a788c_Class2 ( Int) Bool)
(declare-fun type_84081dda_17f9_4e8d_841d_5419697a788c_Class3 ( Int) Bool)
(declare-fun type_84081dda_17f9_4e8d_841d_5419697a788c_Class4 ( Int) Bool)
(declare-fun type_84081dda_17f9_4e8d_841d_5419697a788c_Class5 ( Int) Bool)
(declare-fun type_84081dda_17f9_4e8d_841d_5419697a788c_Class6 ( Int) Bool)
(declare-fun type_84081dda_17f9_4e8d_841d_5419697a788c_Class7 ( Int) Bool)
(declare-fun type_84081dda_17f9_4e8d_841d_5419697a788c_Class8 ( Int) Bool)
(declare-fun type_84081dda_17f9_4e8d_841d_5419697a788c_Class9 ( Int) Bool)
(declare-fun Enum0 ( Int) Int)
(declare-fun Enum1 ( Int) Int)
(declare-fun Enum2 ( Int) Int)
(declare-fun container_ ( Int) Int)
(declare-fun oclIncludes ( Int Int) Bool)
(declare-fun ObjAt ( Int Int) Int)

;formula(s) generated
(assert (! (forall ((c1 Int)) (=> (and (and ( type_84081dda_17f9_4e8d_841d_5419697a788c_Class46 c1 )  ( type_84081dda_17f9_4e8d_841d_5419697a788c_Class15 c1 ) ) ( type_84081dda_17f9_4e8d_841d_5419697a788c_Class5 c1 ) ) (> ( class46_Class46IntAttr2 ( obj_eb8ad17f_5f82_48c8_8535_478c6160225e c1 )  )  7))):named l0))
(assert (! (forall ((v Int)) (=> (and (and ( type_84081dda_17f9_4e8d_841d_5419697a788c_Class46 v )  ( type_84081dda_17f9_4e8d_841d_5419697a788c_Class15 v ) ) ( type_84081dda_17f9_4e8d_841d_5419697a788c_Class5 v ) ) (< ( class46_Class46IntAttr2 ( obj_eb8ad17f_5f82_48c8_8535_478c6160225e v )  )  2))):named l1))
(assert (! (exists ((o Int)) (and (and (and (and (and (and ( type_84081dda_17f9_4e8d_841d_5419697a788c_Class0 ( obj_eb8ad17f_5f82_48c8_8535_478c6160225e o )  )  ( type_84081dda_17f9_4e8d_841d_5419697a788c_Class44 ( obj_eb8ad17f_5f82_48c8_8535_478c6160225e o )  ) ) ( type_84081dda_17f9_4e8d_841d_5419697a788c_Class36 ( obj_eb8ad17f_5f82_48c8_8535_478c6160225e o )  ) ) ( type_84081dda_17f9_4e8d_841d_5419697a788c_Class35 ( obj_eb8ad17f_5f82_48c8_8535_478c6160225e o )  ) ) ( type_84081dda_17f9_4e8d_841d_5419697a788c_Class27 ( obj_eb8ad17f_5f82_48c8_8535_478c6160225e o )  ) ) ( type_84081dda_17f9_4e8d_841d_5419697a788c_Class15 ( obj_eb8ad17f_5f82_48c8_8535_478c6160225e o )  ) ) ( type_84081dda_17f9_4e8d_841d_5419697a788c_Class28 ( obj_eb8ad17f_5f82_48c8_8535_478c6160225e o )  ) )):named c0))
(assert (! (exists ((o Int)) ( type_84081dda_17f9_4e8d_841d_5419697a788c_Class1 ( obj_eb8ad17f_5f82_48c8_8535_478c6160225e o )  ) ):named c1))
(assert (! (exists ((o Int)) (and (and ( type_84081dda_17f9_4e8d_841d_5419697a788c_Class10 ( obj_eb8ad17f_5f82_48c8_8535_478c6160225e o )  )  ( type_84081dda_17f9_4e8d_841d_5419697a788c_Class15 ( obj_eb8ad17f_5f82_48c8_8535_478c6160225e o )  ) ) ( type_84081dda_17f9_4e8d_841d_5419697a788c_Class21 ( obj_eb8ad17f_5f82_48c8_8535_478c6160225e o )  ) )):named c2))
(assert (! (exists ((o Int)) ( type_84081dda_17f9_4e8d_841d_5419697a788c_Class11 ( obj_eb8ad17f_5f82_48c8_8535_478c6160225e o )  ) ):named c3))
(assert (! (exists ((o Int)) (and (and ( type_84081dda_17f9_4e8d_841d_5419697a788c_Class12 ( obj_eb8ad17f_5f82_48c8_8535_478c6160225e o )  )  ( type_84081dda_17f9_4e8d_841d_5419697a788c_Class33 ( obj_eb8ad17f_5f82_48c8_8535_478c6160225e o )  ) ) ( type_84081dda_17f9_4e8d_841d_5419697a788c_Class15 ( obj_eb8ad17f_5f82_48c8_8535_478c6160225e o )  ) )):named c4))
(assert (! (exists ((o Int)) ( type_84081dda_17f9_4e8d_841d_5419697a788c_Class13 ( obj_eb8ad17f_5f82_48c8_8535_478c6160225e o )  ) ):named c5))
(assert (! (exists ((o Int)) (and (and (and (and (and (and ( type_84081dda_17f9_4e8d_841d_5419697a788c_Class14 ( obj_eb8ad17f_5f82_48c8_8535_478c6160225e o )  )  ( type_84081dda_17f9_4e8d_841d_5419697a788c_Class36 ( obj_eb8ad17f_5f82_48c8_8535_478c6160225e o )  ) ) ( type_84081dda_17f9_4e8d_841d_5419697a788c_Class35 ( obj_eb8ad17f_5f82_48c8_8535_478c6160225e o )  ) ) ( type_84081dda_17f9_4e8d_841d_5419697a788c_Class27 ( obj_eb8ad17f_5f82_48c8_8535_478c6160225e o )  ) ) ( type_84081dda_17f9_4e8d_841d_5419697a788c_Class9 ( obj_eb8ad17f_5f82_48c8_8535_478c6160225e o )  ) ) ( type_84081dda_17f9_4e8d_841d_5419697a788c_Class15 ( obj_eb8ad17f_5f82_48c8_8535_478c6160225e o )  ) ) ( type_84081dda_17f9_4e8d_841d_5419697a788c_Class28 ( obj_eb8ad17f_5f82_48c8_8535_478c6160225e o )  ) )):named c6))
(assert (! (exists ((o Int)) ( type_84081dda_17f9_4e8d_841d_5419697a788c_Class15 ( obj_eb8ad17f_5f82_48c8_8535_478c6160225e o )  ) ):named c7))
(assert (! (exists ((o Int)) ( type_84081dda_17f9_4e8d_841d_5419697a788c_Class16 ( obj_eb8ad17f_5f82_48c8_8535_478c6160225e o )  ) ):named c8))
(assert (! (exists ((o Int)) (and (and (and (and (and (and ( type_84081dda_17f9_4e8d_841d_5419697a788c_Class17 ( obj_eb8ad17f_5f82_48c8_8535_478c6160225e o )  )  ( type_84081dda_17f9_4e8d_841d_5419697a788c_Class44 ( obj_eb8ad17f_5f82_48c8_8535_478c6160225e o )  ) ) ( type_84081dda_17f9_4e8d_841d_5419697a788c_Class36 ( obj_eb8ad17f_5f82_48c8_8535_478c6160225e o )  ) ) ( type_84081dda_17f9_4e8d_841d_5419697a788c_Class35 ( obj_eb8ad17f_5f82_48c8_8535_478c6160225e o )  ) ) ( type_84081dda_17f9_4e8d_841d_5419697a788c_Class27 ( obj_eb8ad17f_5f82_48c8_8535_478c6160225e o )  ) ) ( type_84081dda_17f9_4e8d_841d_5419697a788c_Class15 ( obj_eb8ad17f_5f82_48c8_8535_478c6160225e o )  ) ) ( type_84081dda_17f9_4e8d_841d_5419697a788c_Class28 ( obj_eb8ad17f_5f82_48c8_8535_478c6160225e o )  ) )):named c9))
(assert (! (exists ((o Int)) ( type_84081dda_17f9_4e8d_841d_5419697a788c_Class18 ( obj_eb8ad17f_5f82_48c8_8535_478c6160225e o )  ) ):named c10))
(assert (! (exists ((o Int)) (and (and (and (and (and (and ( type_84081dda_17f9_4e8d_841d_5419697a788c_Class19 ( obj_eb8ad17f_5f82_48c8_8535_478c6160225e o )  )  ( type_84081dda_17f9_4e8d_841d_5419697a788c_Class36 ( obj_eb8ad17f_5f82_48c8_8535_478c6160225e o )  ) ) ( type_84081dda_17f9_4e8d_841d_5419697a788c_Class35 ( obj_eb8ad17f_5f82_48c8_8535_478c6160225e o )  ) ) ( type_84081dda_17f9_4e8d_841d_5419697a788c_Class27 ( obj_eb8ad17f_5f82_48c8_8535_478c6160225e o )  ) ) ( type_84081dda_17f9_4e8d_841d_5419697a788c_Class9 ( obj_eb8ad17f_5f82_48c8_8535_478c6160225e o )  ) ) ( type_84081dda_17f9_4e8d_841d_5419697a788c_Class15 ( obj_eb8ad17f_5f82_48c8_8535_478c6160225e o )  ) ) ( type_84081dda_17f9_4e8d_841d_5419697a788c_Class28 ( obj_eb8ad17f_5f82_48c8_8535_478c6160225e o )  ) )):named c11))
(assert (! (exists ((o Int)) (and (and (and (and (and (and ( type_84081dda_17f9_4e8d_841d_5419697a788c_Class2 ( obj_eb8ad17f_5f82_48c8_8535_478c6160225e o )  )  ( type_84081dda_17f9_4e8d_841d_5419697a788c_Class36 ( obj_eb8ad17f_5f82_48c8_8535_478c6160225e o )  ) ) ( type_84081dda_17f9_4e8d_841d_5419697a788c_Class35 ( obj_eb8ad17f_5f82_48c8_8535_478c6160225e o )  ) ) ( type_84081dda_17f9_4e8d_841d_5419697a788c_Class27 ( obj_eb8ad17f_5f82_48c8_8535_478c6160225e o )  ) ) ( type_84081dda_17f9_4e8d_841d_5419697a788c_Class15 ( obj_eb8ad17f_5f82_48c8_8535_478c6160225e o )  ) ) ( type_84081dda_17f9_4e8d_841d_5419697a788c_Class28 ( obj_eb8ad17f_5f82_48c8_8535_478c6160225e o )  ) ) ( type_84081dda_17f9_4e8d_841d_5419697a788c_Class54 ( obj_eb8ad17f_5f82_48c8_8535_478c6160225e o )  ) )):named c12))
(assert (! (exists ((o Int)) (and ( type_84081dda_17f9_4e8d_841d_5419697a788c_Class20 ( obj_eb8ad17f_5f82_48c8_8535_478c6160225e o )  )  ( type_84081dda_17f9_4e8d_841d_5419697a788c_Class15 ( obj_eb8ad17f_5f82_48c8_8535_478c6160225e o )  ) )):named c13))
(assert (! (exists ((o Int)) (and ( type_84081dda_17f9_4e8d_841d_5419697a788c_Class21 ( obj_eb8ad17f_5f82_48c8_8535_478c6160225e o )  )  ( type_84081dda_17f9_4e8d_841d_5419697a788c_Class15 ( obj_eb8ad17f_5f82_48c8_8535_478c6160225e o )  ) )):named c14))
(assert (! (exists ((o Int)) (and (and (and ( type_84081dda_17f9_4e8d_841d_5419697a788c_Class22 ( obj_eb8ad17f_5f82_48c8_8535_478c6160225e o )  )  ( type_84081dda_17f9_4e8d_841d_5419697a788c_Class15 ( obj_eb8ad17f_5f82_48c8_8535_478c6160225e o )  ) ) ( type_84081dda_17f9_4e8d_841d_5419697a788c_Class48 ( obj_eb8ad17f_5f82_48c8_8535_478c6160225e o )  ) ) ( type_84081dda_17f9_4e8d_841d_5419697a788c_Class43 ( obj_eb8ad17f_5f82_48c8_8535_478c6160225e o )  ) )):named c15))
(assert (! (exists ((o Int)) ( type_84081dda_17f9_4e8d_841d_5419697a788c_Class23 ( obj_eb8ad17f_5f82_48c8_8535_478c6160225e o )  ) ):named c16))
(assert (! (exists ((o Int)) ( type_84081dda_17f9_4e8d_841d_5419697a788c_Class24 ( obj_eb8ad17f_5f82_48c8_8535_478c6160225e o )  ) ):named c17))
(assert (! (exists ((o Int)) (and (and (and ( type_84081dda_17f9_4e8d_841d_5419697a788c_Class25 ( obj_eb8ad17f_5f82_48c8_8535_478c6160225e o )  )  ( type_84081dda_17f9_4e8d_841d_5419697a788c_Class12 ( obj_eb8ad17f_5f82_48c8_8535_478c6160225e o )  ) ) ( type_84081dda_17f9_4e8d_841d_5419697a788c_Class33 ( obj_eb8ad17f_5f82_48c8_8535_478c6160225e o )  ) ) ( type_84081dda_17f9_4e8d_841d_5419697a788c_Class15 ( obj_eb8ad17f_5f82_48c8_8535_478c6160225e o )  ) )):named c18))
(assert (! (exists ((o Int)) ( type_84081dda_17f9_4e8d_841d_5419697a788c_Class26 ( obj_eb8ad17f_5f82_48c8_8535_478c6160225e o )  ) ):named c19))
(assert (! (exists ((o Int)) (and ( type_84081dda_17f9_4e8d_841d_5419697a788c_Class27 ( obj_eb8ad17f_5f82_48c8_8535_478c6160225e o )  )  ( type_84081dda_17f9_4e8d_841d_5419697a788c_Class15 ( obj_eb8ad17f_5f82_48c8_8535_478c6160225e o )  ) )):named c20))
(assert (! (exists ((o Int)) (and (and ( type_84081dda_17f9_4e8d_841d_5419697a788c_Class28 ( obj_eb8ad17f_5f82_48c8_8535_478c6160225e o )  )  ( type_84081dda_17f9_4e8d_841d_5419697a788c_Class27 ( obj_eb8ad17f_5f82_48c8_8535_478c6160225e o )  ) ) ( type_84081dda_17f9_4e8d_841d_5419697a788c_Class15 ( obj_eb8ad17f_5f82_48c8_8535_478c6160225e o )  ) )):named c21))
(assert (! (exists ((o Int)) (and (and (and (and (and ( type_84081dda_17f9_4e8d_841d_5419697a788c_Class29 ( obj_eb8ad17f_5f82_48c8_8535_478c6160225e o )  )  ( type_84081dda_17f9_4e8d_841d_5419697a788c_Class36 ( obj_eb8ad17f_5f82_48c8_8535_478c6160225e o )  ) ) ( type_84081dda_17f9_4e8d_841d_5419697a788c_Class35 ( obj_eb8ad17f_5f82_48c8_8535_478c6160225e o )  ) ) ( type_84081dda_17f9_4e8d_841d_5419697a788c_Class27 ( obj_eb8ad17f_5f82_48c8_8535_478c6160225e o )  ) ) ( type_84081dda_17f9_4e8d_841d_5419697a788c_Class15 ( obj_eb8ad17f_5f82_48c8_8535_478c6160225e o )  ) ) ( type_84081dda_17f9_4e8d_841d_5419697a788c_Class28 ( obj_eb8ad17f_5f82_48c8_8535_478c6160225e o )  ) )):named c22))
(assert (! (exists ((o Int)) ( type_84081dda_17f9_4e8d_841d_5419697a788c_Class3 ( obj_eb8ad17f_5f82_48c8_8535_478c6160225e o )  ) ):named c23))
(assert (! (exists ((o Int)) (and (and ( type_84081dda_17f9_4e8d_841d_5419697a788c_Class30 ( obj_eb8ad17f_5f82_48c8_8535_478c6160225e o )  )  ( type_84081dda_17f9_4e8d_841d_5419697a788c_Class33 ( obj_eb8ad17f_5f82_48c8_8535_478c6160225e o )  ) ) ( type_84081dda_17f9_4e8d_841d_5419697a788c_Class15 ( obj_eb8ad17f_5f82_48c8_8535_478c6160225e o )  ) )):named c24))
(assert (! (exists ((o Int)) (and (and (and (and (and (and ( type_84081dda_17f9_4e8d_841d_5419697a788c_Class31 ( obj_eb8ad17f_5f82_48c8_8535_478c6160225e o )  )  ( type_84081dda_17f9_4e8d_841d_5419697a788c_Class36 ( obj_eb8ad17f_5f82_48c8_8535_478c6160225e o )  ) ) ( type_84081dda_17f9_4e8d_841d_5419697a788c_Class35 ( obj_eb8ad17f_5f82_48c8_8535_478c6160225e o )  ) ) ( type_84081dda_17f9_4e8d_841d_5419697a788c_Class27 ( obj_eb8ad17f_5f82_48c8_8535_478c6160225e o )  ) ) ( type_84081dda_17f9_4e8d_841d_5419697a788c_Class15 ( obj_eb8ad17f_5f82_48c8_8535_478c6160225e o )  ) ) ( type_84081dda_17f9_4e8d_841d_5419697a788c_Class28 ( obj_eb8ad17f_5f82_48c8_8535_478c6160225e o )  ) ) ( type_84081dda_17f9_4e8d_841d_5419697a788c_Class54 ( obj_eb8ad17f_5f82_48c8_8535_478c6160225e o )  ) )):named c25))
(assert (! (exists ((o Int)) ( type_84081dda_17f9_4e8d_841d_5419697a788c_Class32 ( obj_eb8ad17f_5f82_48c8_8535_478c6160225e o )  ) ):named c26))
(assert (! (exists ((o Int)) (and ( type_84081dda_17f9_4e8d_841d_5419697a788c_Class33 ( obj_eb8ad17f_5f82_48c8_8535_478c6160225e o )  )  ( type_84081dda_17f9_4e8d_841d_5419697a788c_Class15 ( obj_eb8ad17f_5f82_48c8_8535_478c6160225e o )  ) )):named c27))
(assert (! (exists ((o Int)) ( type_84081dda_17f9_4e8d_841d_5419697a788c_Class34 ( obj_eb8ad17f_5f82_48c8_8535_478c6160225e o )  ) ):named c28))
(assert (! (exists ((o Int)) (and (and (and (and ( type_84081dda_17f9_4e8d_841d_5419697a788c_Class35 ( obj_eb8ad17f_5f82_48c8_8535_478c6160225e o )  )  ( type_84081dda_17f9_4e8d_841d_5419697a788c_Class36 ( obj_eb8ad17f_5f82_48c8_8535_478c6160225e o )  ) ) ( type_84081dda_17f9_4e8d_841d_5419697a788c_Class27 ( obj_eb8ad17f_5f82_48c8_8535_478c6160225e o )  ) ) ( type_84081dda_17f9_4e8d_841d_5419697a788c_Class15 ( obj_eb8ad17f_5f82_48c8_8535_478c6160225e o )  ) ) ( type_84081dda_17f9_4e8d_841d_5419697a788c_Class28 ( obj_eb8ad17f_5f82_48c8_8535_478c6160225e o )  ) )):named c29))
(assert (! (exists ((o Int)) (and (and (and ( type_84081dda_17f9_4e8d_841d_5419697a788c_Class36 ( obj_eb8ad17f_5f82_48c8_8535_478c6160225e o )  )  ( type_84081dda_17f9_4e8d_841d_5419697a788c_Class27 ( obj_eb8ad17f_5f82_48c8_8535_478c6160225e o )  ) ) ( type_84081dda_17f9_4e8d_841d_5419697a788c_Class15 ( obj_eb8ad17f_5f82_48c8_8535_478c6160225e o )  ) ) ( type_84081dda_17f9_4e8d_841d_5419697a788c_Class28 ( obj_eb8ad17f_5f82_48c8_8535_478c6160225e o )  ) )):named c30))
(assert (! (exists ((o Int)) (and ( type_84081dda_17f9_4e8d_841d_5419697a788c_Class37 ( obj_eb8ad17f_5f82_48c8_8535_478c6160225e o )  )  ( type_84081dda_17f9_4e8d_841d_5419697a788c_Class15 ( obj_eb8ad17f_5f82_48c8_8535_478c6160225e o )  ) )):named c31))
(assert (! (exists ((o Int)) (and (and (and (and ( type_84081dda_17f9_4e8d_841d_5419697a788c_Class38 ( obj_eb8ad17f_5f82_48c8_8535_478c6160225e o )  )  ( type_84081dda_17f9_4e8d_841d_5419697a788c_Class22 ( obj_eb8ad17f_5f82_48c8_8535_478c6160225e o )  ) ) ( type_84081dda_17f9_4e8d_841d_5419697a788c_Class15 ( obj_eb8ad17f_5f82_48c8_8535_478c6160225e o )  ) ) ( type_84081dda_17f9_4e8d_841d_5419697a788c_Class48 ( obj_eb8ad17f_5f82_48c8_8535_478c6160225e o )  ) ) ( type_84081dda_17f9_4e8d_841d_5419697a788c_Class43 ( obj_eb8ad17f_5f82_48c8_8535_478c6160225e o )  ) )):named c32))
(assert (! (exists ((o Int)) ( type_84081dda_17f9_4e8d_841d_5419697a788c_Class39 ( obj_eb8ad17f_5f82_48c8_8535_478c6160225e o )  ) ):named c33))
(assert (! (exists ((o Int)) (and (and (and (and (and (and ( type_84081dda_17f9_4e8d_841d_5419697a788c_Class4 ( obj_eb8ad17f_5f82_48c8_8535_478c6160225e o )  )  ( type_84081dda_17f9_4e8d_841d_5419697a788c_Class44 ( obj_eb8ad17f_5f82_48c8_8535_478c6160225e o )  ) ) ( type_84081dda_17f9_4e8d_841d_5419697a788c_Class36 ( obj_eb8ad17f_5f82_48c8_8535_478c6160225e o )  ) ) ( type_84081dda_17f9_4e8d_841d_5419697a788c_Class35 ( obj_eb8ad17f_5f82_48c8_8535_478c6160225e o )  ) ) ( type_84081dda_17f9_4e8d_841d_5419697a788c_Class27 ( obj_eb8ad17f_5f82_48c8_8535_478c6160225e o )  ) ) ( type_84081dda_17f9_4e8d_841d_5419697a788c_Class15 ( obj_eb8ad17f_5f82_48c8_8535_478c6160225e o )  ) ) ( type_84081dda_17f9_4e8d_841d_5419697a788c_Class28 ( obj_eb8ad17f_5f82_48c8_8535_478c6160225e o )  ) )):named c34))
(assert (! (exists ((o Int)) ( type_84081dda_17f9_4e8d_841d_5419697a788c_Class40 ( obj_eb8ad17f_5f82_48c8_8535_478c6160225e o )  ) ):named c35))
(assert (! (exists ((o Int)) ( type_84081dda_17f9_4e8d_841d_5419697a788c_Class41 ( obj_eb8ad17f_5f82_48c8_8535_478c6160225e o )  ) ):named c36))
(assert (! (exists ((o Int)) ( type_84081dda_17f9_4e8d_841d_5419697a788c_Class42 ( obj_eb8ad17f_5f82_48c8_8535_478c6160225e o )  ) ):named c37))
(assert (! (exists ((o Int)) (and ( type_84081dda_17f9_4e8d_841d_5419697a788c_Class43 ( obj_eb8ad17f_5f82_48c8_8535_478c6160225e o )  )  ( type_84081dda_17f9_4e8d_841d_5419697a788c_Class15 ( obj_eb8ad17f_5f82_48c8_8535_478c6160225e o )  ) )):named c38))
(assert (! (exists ((o Int)) (and (and (and (and (and ( type_84081dda_17f9_4e8d_841d_5419697a788c_Class44 ( obj_eb8ad17f_5f82_48c8_8535_478c6160225e o )  )  ( type_84081dda_17f9_4e8d_841d_5419697a788c_Class36 ( obj_eb8ad17f_5f82_48c8_8535_478c6160225e o )  ) ) ( type_84081dda_17f9_4e8d_841d_5419697a788c_Class35 ( obj_eb8ad17f_5f82_48c8_8535_478c6160225e o )  ) ) ( type_84081dda_17f9_4e8d_841d_5419697a788c_Class27 ( obj_eb8ad17f_5f82_48c8_8535_478c6160225e o )  ) ) ( type_84081dda_17f9_4e8d_841d_5419697a788c_Class15 ( obj_eb8ad17f_5f82_48c8_8535_478c6160225e o )  ) ) ( type_84081dda_17f9_4e8d_841d_5419697a788c_Class28 ( obj_eb8ad17f_5f82_48c8_8535_478c6160225e o )  ) )):named c39))
(assert (! (exists ((o Int)) (and (and (and (and (and (and ( type_84081dda_17f9_4e8d_841d_5419697a788c_Class45 ( obj_eb8ad17f_5f82_48c8_8535_478c6160225e o )  )  ( type_84081dda_17f9_4e8d_841d_5419697a788c_Class36 ( obj_eb8ad17f_5f82_48c8_8535_478c6160225e o )  ) ) ( type_84081dda_17f9_4e8d_841d_5419697a788c_Class35 ( obj_eb8ad17f_5f82_48c8_8535_478c6160225e o )  ) ) ( type_84081dda_17f9_4e8d_841d_5419697a788c_Class27 ( obj_eb8ad17f_5f82_48c8_8535_478c6160225e o )  ) ) ( type_84081dda_17f9_4e8d_841d_5419697a788c_Class9 ( obj_eb8ad17f_5f82_48c8_8535_478c6160225e o )  ) ) ( type_84081dda_17f9_4e8d_841d_5419697a788c_Class15 ( obj_eb8ad17f_5f82_48c8_8535_478c6160225e o )  ) ) ( type_84081dda_17f9_4e8d_841d_5419697a788c_Class28 ( obj_eb8ad17f_5f82_48c8_8535_478c6160225e o )  ) )):named c40))
(assert (! (exists ((o Int)) (and (and ( type_84081dda_17f9_4e8d_841d_5419697a788c_Class46 ( obj_eb8ad17f_5f82_48c8_8535_478c6160225e o )  )  ( type_84081dda_17f9_4e8d_841d_5419697a788c_Class15 ( obj_eb8ad17f_5f82_48c8_8535_478c6160225e o )  ) ) ( type_84081dda_17f9_4e8d_841d_5419697a788c_Class5 ( obj_eb8ad17f_5f82_48c8_8535_478c6160225e o )  ) )):named c41))
(assert (! (exists ((o Int)) ( type_84081dda_17f9_4e8d_841d_5419697a788c_Class47 ( obj_eb8ad17f_5f82_48c8_8535_478c6160225e o )  ) ):named c42))
(assert (! (exists ((o Int)) (and ( type_84081dda_17f9_4e8d_841d_5419697a788c_Class48 ( obj_eb8ad17f_5f82_48c8_8535_478c6160225e o )  )  ( type_84081dda_17f9_4e8d_841d_5419697a788c_Class15 ( obj_eb8ad17f_5f82_48c8_8535_478c6160225e o )  ) )):named c43))
(assert (! (exists ((o Int)) ( type_84081dda_17f9_4e8d_841d_5419697a788c_Class49 ( obj_eb8ad17f_5f82_48c8_8535_478c6160225e o )  ) ):named c44))
(assert (! (exists ((o Int)) (and ( type_84081dda_17f9_4e8d_841d_5419697a788c_Class5 ( obj_eb8ad17f_5f82_48c8_8535_478c6160225e o )  )  ( type_84081dda_17f9_4e8d_841d_5419697a788c_Class15 ( obj_eb8ad17f_5f82_48c8_8535_478c6160225e o )  ) )):named c45))
(assert (! (exists ((o Int)) ( type_84081dda_17f9_4e8d_841d_5419697a788c_Class50 ( obj_eb8ad17f_5f82_48c8_8535_478c6160225e o )  ) ):named c46))
(assert (! (exists ((o Int)) ( type_84081dda_17f9_4e8d_841d_5419697a788c_Class51 ( obj_eb8ad17f_5f82_48c8_8535_478c6160225e o )  ) ):named c47))
(assert (! (exists ((o Int)) ( type_84081dda_17f9_4e8d_841d_5419697a788c_Class52 ( obj_eb8ad17f_5f82_48c8_8535_478c6160225e o )  ) ):named c48))
(assert (! (exists ((o Int)) ( type_84081dda_17f9_4e8d_841d_5419697a788c_Class53 ( obj_eb8ad17f_5f82_48c8_8535_478c6160225e o )  ) ):named c49))
(assert (! (exists ((o Int)) (and (and (and (and (and ( type_84081dda_17f9_4e8d_841d_5419697a788c_Class54 ( obj_eb8ad17f_5f82_48c8_8535_478c6160225e o )  )  ( type_84081dda_17f9_4e8d_841d_5419697a788c_Class36 ( obj_eb8ad17f_5f82_48c8_8535_478c6160225e o )  ) ) ( type_84081dda_17f9_4e8d_841d_5419697a788c_Class35 ( obj_eb8ad17f_5f82_48c8_8535_478c6160225e o )  ) ) ( type_84081dda_17f9_4e8d_841d_5419697a788c_Class27 ( obj_eb8ad17f_5f82_48c8_8535_478c6160225e o )  ) ) ( type_84081dda_17f9_4e8d_841d_5419697a788c_Class15 ( obj_eb8ad17f_5f82_48c8_8535_478c6160225e o )  ) ) ( type_84081dda_17f9_4e8d_841d_5419697a788c_Class28 ( obj_eb8ad17f_5f82_48c8_8535_478c6160225e o )  ) )):named c50))
(assert (! (exists ((o Int)) ( type_84081dda_17f9_4e8d_841d_5419697a788c_Class55 ( obj_eb8ad17f_5f82_48c8_8535_478c6160225e o )  ) ):named c51))
(assert (! (exists ((o Int)) ( type_84081dda_17f9_4e8d_841d_5419697a788c_Class56 ( obj_eb8ad17f_5f82_48c8_8535_478c6160225e o )  ) ):named c52))
(assert (! (exists ((o Int)) (and (and (and (and ( type_84081dda_17f9_4e8d_841d_5419697a788c_Class6 ( obj_eb8ad17f_5f82_48c8_8535_478c6160225e o )  )  ( type_84081dda_17f9_4e8d_841d_5419697a788c_Class22 ( obj_eb8ad17f_5f82_48c8_8535_478c6160225e o )  ) ) ( type_84081dda_17f9_4e8d_841d_5419697a788c_Class15 ( obj_eb8ad17f_5f82_48c8_8535_478c6160225e o )  ) ) ( type_84081dda_17f9_4e8d_841d_5419697a788c_Class48 ( obj_eb8ad17f_5f82_48c8_8535_478c6160225e o )  ) ) ( type_84081dda_17f9_4e8d_841d_5419697a788c_Class43 ( obj_eb8ad17f_5f82_48c8_8535_478c6160225e o )  ) )):named c53))
(assert (! (exists ((o Int)) ( type_84081dda_17f9_4e8d_841d_5419697a788c_Class7 ( obj_eb8ad17f_5f82_48c8_8535_478c6160225e o )  ) ):named c54))
(assert (! (exists ((o Int)) ( type_84081dda_17f9_4e8d_841d_5419697a788c_Class8 ( obj_eb8ad17f_5f82_48c8_8535_478c6160225e o )  ) ):named c55))
(assert (! (exists ((o Int)) (and (and (and (and (and ( type_84081dda_17f9_4e8d_841d_5419697a788c_Class9 ( obj_eb8ad17f_5f82_48c8_8535_478c6160225e o )  )  ( type_84081dda_17f9_4e8d_841d_5419697a788c_Class36 ( obj_eb8ad17f_5f82_48c8_8535_478c6160225e o )  ) ) ( type_84081dda_17f9_4e8d_841d_5419697a788c_Class35 ( obj_eb8ad17f_5f82_48c8_8535_478c6160225e o )  ) ) ( type_84081dda_17f9_4e8d_841d_5419697a788c_Class27 ( obj_eb8ad17f_5f82_48c8_8535_478c6160225e o )  ) ) ( type_84081dda_17f9_4e8d_841d_5419697a788c_Class15 ( obj_eb8ad17f_5f82_48c8_8535_478c6160225e o )  ) ) ( type_84081dda_17f9_4e8d_841d_5419697a788c_Class28 ( obj_eb8ad17f_5f82_48c8_8535_478c6160225e o )  ) )):named c56))

 ;end of formula 